p cnf 100 150
1 53 0
1 76 0
1 16 0
2 39 0
2 16 0
2 8 0
3 36 0
3 57 0
3 77 0
4 38 0
4 57 0
4 42 0
5 25 0
5 10 0
5 93 0
6 36 0
6 52 0
6 41 0
7 9 0
7 42 0
7 73 0
8 88 0
8 85 0
9 58 0
9 87 0
10 50 0
10 66 0
11 65 0
11 14 0
11 73 0
12 26 0
12 21 0
12 40 0
13 42 0
13 35 0
13 51 0
14 23 0
14 55 0
15 29 0
15 79 0
15 22 0
16 30 0
17 27 0
17 99 0
17 33 0
18 22 0
18 80 0
18 67 0
19 96 0
19 73 0
19 55 0
20 32 0
20 67 0
20 96 0
21 56 0
21 96 0
22 61 0
23 92 0
23 33 0
24 72 0
24 94 0
24 81 0
25 45 0
25 58 0
26 91 0
26 57 0
27 82 0
27 75 0
28 66 0
28 69 0
28 90 0
29 46 0
29 62 0
30 98 0
30 92 0
31 60 0
31 49 0
31 41 0
32 49 0
32 88 0
33 40 0
34 66 0
34 77 0
34 68 0
35 54 0
35 85 0
36 81 0
37 59 0
37 80 0
37 70 0
38 74 0
38 41 0
39 62 0
39 93 0
40 59 0
43 98 0
43 51 0
43 79 0
44 62 0
44 61 0
44 91 0
45 84 0
45 75 0
46 90 0
46 51 0
47 88 0
47 94 0
47 65 0
48 89 0
48 95 0
48 100 0
49 74 0
50 53 0
50 71 0
52 60 0
52 81 0
53 95 0
54 60 0
54 56 0
55 97 0
56 71 0
58 89 0
59 85 0
61 87 0
63 65 0
63 92 0
63 83 0
64 97 0
64 67 0
64 80 0
68 69 0
68 79 0
69 70 0
70 95 0
71 99 0
72 76 0
72 100 0
74 78 0
75 100 0
76 99 0
77 78 0
78 94 0
82 84 0
82 86 0
83 98 0
83 87 0
84 91 0
86 89 0
86 93 0
90 97 0
g -61